set VV := 0 1 2 3 4 5 6 7 8 9 10 ;
set VS := 0 1 2 3 4 5 6 7 8 9 10 11 12 13 14 15 16 17 18 19 20 21 22 23 24 25 ;
param cv := 
0 10
1 18
2 15
3 20
4 17
5 12
6 16
7 25
8 18
9 20
10 12
;
param cs := 
0 21
1 37
2 25
3 34
4 27
5 40
6 22
7 35
8 27
9 33
10 31
11 25
12 36
13 34
14 21
15 22
16 38
17 22
18 34
19 23
20 28
21 21
22 24
23 36
24 32
25 25
;
param bv:	 0 1 2 3 4 5 6 7 8 9 10 := 
		0 0 14 0 0 0 0 0 0 17 0 0 
		1 0 0 14 0 0 10 0 0 0 0 0 
		2 0 0 0 0 0 0 0 23 0 0 0 
		3 0 0 0 0 14 0 0 10 0 0 0 
		4 0 0 0 0 0 0 0 0 0 0 0 
		5 0 0 0 0 0 0 10 0 0 23 0 
		6 0 0 0 0 0 0 0 16 14 15 10 
		7 0 0 0 0 0 0 0 0 17 0 0 
		8 0 0 0 0 0 0 0 0 0 0 0 
		9 0 0 0 0 0 0 0 0 0 0 0 
		10 0 0 0 0 0 0 0 0 0 0 0 
;
param bs:	 0 1 2 3 4 5 6 7 8 9 10 11 12 13 14 15 16 17 18 19 20 21 22 23 24 25 := 
		0 0 0 0 0 0 0 0 0 0 0 0 21 0 37 0 0 0 0 0 0 0 0 0 0 0 0 
		1 0 0 34 0 0 0 0 0 32 0 22 0 0 0 0 0 0 0 0 0 0 0 0 0 33 0 
		2 0 34 0 26 0 0 0 0 0 0 0 24 0 0 0 0 0 0 0 0 0 0 38 0 0 0 
		3 0 0 26 0 0 0 0 0 40 30 27 27 0 0 0 0 0 0 0 0 0 0 0 0 0 0 
		4 0 0 0 0 0 0 0 24 30 0 0 0 0 0 37 0 0 0 36 0 0 0 0 0 0 0 
		5 0 0 0 0 0 0 0 0 0 0 0 0 37 0 0 29 0 0 0 0 0 0 0 0 25 0 
		6 0 0 0 0 0 0 0 0 0 0 0 0 0 0 0 0 0 0 0 0 30 0 0 0 0 0 
		7 0 0 0 0 24 0 0 0 0 0 0 0 0 0 38 0 0 0 0 0 0 0 0 0 0 0 
		8 0 32 0 40 30 0 0 0 0 0 0 0 0 0 0 0 0 0 0 0 0 0 0 0 0 0 
		9 0 0 0 30 0 0 0 0 0 0 0 0 0 31 0 23 0 0 37 0 0 34 0 0 0 0 
		10 0 22 0 27 0 0 0 0 0 0 0 0 0 0 0 20 0 36 0 0 0 0 0 0 0 0 
		11 21 0 24 27 0 0 0 0 0 0 0 0 0 0 0 0 0 0 0 0 0 29 0 0 0 0 
		12 0 0 0 0 0 37 0 0 0 0 0 0 0 0 0 31 0 0 0 0 0 0 0 0 0 0 
		13 37 0 0 0 0 0 0 0 0 31 0 0 0 0 0 0 0 0 0 0 0 0 0 0 0 0 
		14 0 0 0 0 37 0 0 38 0 0 0 0 0 0 0 0 0 0 0 0 0 0 0 38 0 0 
		15 0 0 0 0 0 29 0 0 0 23 20 0 31 0 0 0 0 0 0 22 0 0 0 0 0 0 
		16 0 0 0 0 0 0 0 0 0 0 0 0 0 0 0 0 0 0 20 0 0 0 0 33 0 0 
		17 0 0 0 0 0 0 0 0 0 0 36 0 0 0 0 0 0 0 0 0 0 31 0 0 0 24 
		18 0 0 0 0 36 0 0 0 0 37 0 0 0 0 0 0 20 0 0 25 0 0 0 0 0 0 
		19 0 0 0 0 0 0 0 0 0 0 0 0 0 0 0 22 0 0 25 0 0 0 0 0 0 0 
		20 0 0 0 0 0 0 30 0 0 0 0 0 0 0 0 0 0 0 0 0 0 0 0 27 0 0 
		21 0 0 0 0 0 0 0 0 0 34 0 29 0 0 0 0 0 31 0 0 0 0 0 0 0 0 
		22 0 0 38 0 0 0 0 0 0 0 0 0 0 0 0 0 0 0 0 0 0 0 0 0 0 0 
		23 0 0 0 0 0 0 0 0 0 0 0 0 0 0 38 0 33 0 0 0 27 0 0 0 0 0 
		24 0 33 0 0 0 25 0 0 0 0 0 0 0 0 0 0 0 0 0 0 0 0 0 0 0 0 
		25 0 0 0 0 0 0 0 0 0 0 0 0 0 0 0 0 0 24 0 0 0 0 0 0 0 0 
;
